nN = 10;
nR = 60;
nH = 1;

a = [[25, 18, 23, 22, 24, 16, 17, 21, 22, 23, 23, 25, 20, 17, 25, 24, 23, 23, 15, 25, 20, 24, 18, 21, 19, 15, 20, 17, 20, 17, 22, 24, 15, 17, 16, 20, 19, 24, 20, 20, 25, 17, 23, 19, 18, 16, 16, 20, 19, 20, 16, 19, 20, 22, 16, 24, 19, 22, 15, 21], [16, 17, 22, 15, 18, 22, 17, 15, 23, 18, 25, 21, 21, 23, 17, 21, 17, 25, 21, 21, 15, 18, 24, 25, 19, 21, 19, 22, 21, 18, 16, 21, 21, 25, 15, 25, 18, 18, 19, 17, 22, 15, 19, 16, 17, 18, 20, 16, 16, 16, 17, 24, 18, 22, 18, 16, 23, 21, 18, 15], [21, 16, 21, 17, 15, 19, 25, 22, 25, 18, 18, 23, 24, 22, 19, 20, 21, 25, 16, 17, 24, 16, 19, 17, 17, 16, 16, 24, 16, 17, 23, 24, 20, 23, 17, 17, 25, 22, 19, 24, 24, 18, 21, 20, 16, 20, 25, 23, 21, 18, 17, 23, 24, 23, 15, 21, 25, 24, 22, 16], [22, 15, 25, 24, 25, 20, 16, 17, 15, 20, 19, 23, 17, 20, 24, 25, 24, 23, 22, 20, 23, 24, 23, 24, 25, 19, 15, 25, 19, 15, 19, 18, 19, 18, 25, 17, 22, 15, 25, 17, 15, 20, 22, 23, 17, 21, 16, 22, 21, 20, 23, 23, 23, 23, 22, 18, 22, 18, 18, 24], [21, 20, 25, 23, 23, 23, 18, 22, 24, 20, 23, 15, 20, 19, 21, 18, 24, 17, 15, 17, 21, 21, 19, 24, 24, 15, 24, 21, 24, 23, 25, 17, 23, 17, 18, 19, 20, 25, 25, 21, 20, 23, 16, 25, 24, 24, 22, 24, 22, 23, 20, 19, 19, 16, 17, 15, 19, 23, 22, 25], [15, 16, 15, 15, 24, 25, 19, 22, 15, 23, 21, 19, 16, 21, 16, 15, 21, 17, 23, 20, 25, 23, 25, 16, 15, 20, 15, 18, 25, 19, 20, 18, 16, 22, 21, 23, 22, 21, 25, 19, 18, 19, 16, 22, 15, 15, 22, 21, 16, 21, 23, 19, 20, 24, 18, 17, 18, 17, 19, 16], [15, 17, 15, 21, 21, 17, 15, 21, 25, 25, 17, 16, 15, 19, 18, 25, 18, 16, 21, 21, 21, 20, 24, 21, 15, 15, 21, 25, 24, 22, 20, 15, 21, 25, 22, 18, 15, 21, 15, 22, 15, 23, 23, 17, 16, 16, 18, 21, 17, 25, 19, 20, 25, 25, 25, 17, 23, 25, 16, 23], [22, 16, 25, 22, 20, 18, 23, 18, 22, 25, 17, 15, 15, 23, 20, 22, 19, 15, 20, 23, 16, 21, 21, 25, 17, 18, 18, 15, 24, 17, 21, 22, 23, 15, 16, 23, 20, 17, 16, 15, 21, 16, 21, 23, 16, 24, 15, 21, 22, 18, 20, 19, 18, 22, 20, 20, 19, 16, 18, 22], [18, 16, 16, 24, 21, 19, 25, 19, 23, 22, 16, 22, 20, 17, 23, 23, 15, 19, 23, 15, 21, 17, 22, 20, 21, 15, 23, 15, 21, 15, 22, 25, 18, 19, 21, 25, 15, 15, 15, 24, 22, 19, 17, 22, 25, 16, 25, 19, 24, 24, 16, 15, 21, 24, 18, 18, 25, 18, 20, 25], [21, 15, 19, 24, 21, 16, 23, 19, 22, 24, 20, 19, 20, 20, 21, 23, 19, 15, 23, 15, 17, 22, 20, 16, 23, 17, 20, 24, 21, 16, 17, 19, 16, 24, 17, 21, 16, 20, 23, 22, 20, 20, 20, 18, 15, 19, 25, 22, 21, 19, 18, 23, 15, 16, 24, 20, 19, 25, 15, 17]];
c = [[[0, 0, 0, 0, 0, 0, 0, 0, 0, 0, 0, 0, 0, 0, 0, 0, 0, 0, 0, 0, 0, 0, 0, 0, 0, 0, 0, 0, 0, 0, 0, 0, 0, 0, 0, 0, 0, 0, 0, 0, 0, 0, 0, 0, 0, 0, 0, 0, 0, 0, 0, 0, 0, 0, 0, 0, 0, 0, 0, 0], [34, 30, 41, 40, 38, 42, 35, 38, 42, 42, 40, 45, 35, 36, 49, 50, 40, 33, 37, 48, 43, 46, 34, 32, 48, 49, 49, 42, 42, 43, 36, 35, 38, 34, 46, 34, 39, 41, 31, 37, 44, 39, 30, 34, 46, 49, 32, 43, 45, 49, 40, 49, 43, 36, 42, 32, 32, 50, 36, 34], [36, 39, 34, 31, 44, 38, 40, 48, 38, 37, 38, 38, 42, 49, 42, 30, 43, 38, 50, 40, 45, 40, 50, 36, 50, 50, 38, 47, 48, 46, 50, 50, 30, 30, 32, 39, 44, 35, 48, 40, 44, 32, 45, 41, 50, 44, 34, 39, 32, 48, 50, 49, 32, 47, 43, 47, 36, 36, 42, 43], [31, 49, 45, 40, 33, 34, 32, 41, 49, 40, 38, 37, 37, 42, 47, 31, 32, 33, 49, 50, 45, 38, 46, 33, 46, 42, 34, 44, 39, 42, 47, 49, 38, 31, 32, 34, 33, 47, 46, 37, 41, 32, 40, 35, 49, 30, 48, 40, 50, 49, 34, 33, 39, 50, 36, 38, 40, 46, 36, 43], [38, 49, 34, 34, 34, 50, 42, 45, 34, 49, 45, 37, 48, 36, 36, 43, 39, 47, 32, 32, 30, 50, 36, 31, 48, 46, 49, 45, 35, 35, 39, 37, 34, 46, 33, 43, 34, 48, 47, 47, 32, 48, 36, 39, 40, 43, 48, 43, 49, 47, 34, 35, 45, 40, 46, 45, 45, 50, 46, 47], [36, 47, 32, 33, 49, 37, 33, 48, 39, 33, 50, 48, 36, 49, 36, 37, 39, 42, 47, 39, 38, 49, 42, 30, 38, 30, 37, 41, 43, 42, 38, 45, 40, 38, 46, 36, 40, 44, 45, 30, 43, 31, 41, 45, 34, 41, 33, 45, 50, 48, 36, 30, 32, 38, 41, 40, 36, 34, 50, 32], [30, 41, 42, 35, 48, 49, 30, 36, 35, 36, 34, 30, 31, 48, 47, 43, 35, 39, 44, 45, 39, 30, 32, 44, 32, 34, 34, 49, 34, 49, 35, 43, 39, 32, 31, 50, 37, 36, 49, 49, 47, 31, 33, 34, 42, 31, 49, 35, 37, 37, 44, 33, 49, 46, 44, 41, 34, 48, 44, 47], [34, 45, 41, 30, 44, 32, 49, 37, 49, 50, 47, 36, 50, 33, 42, 31, 49, 45, 45, 34, 34, 33, 36, 30, 45, 48, 47, 45, 34, 45, 45, 49, 46, 38, 40, 44, 37, 36, 43, 50, 34, 49, 37, 45, 40, 41, 48, 44, 31, 40, 49, 36, 35, 44, 33, 42, 45, 44, 37, 37], [44, 37, 41, 32, 31, 47, 39, 32, 44, 33, 47, 34, 30, 34, 37, 31, 45, 46, 32, 37, 44, 45, 49, 42, 42, 34, 31, 45, 47, 40, 35, 41, 43, 44, 39, 30, 33, 35, 43, 45, 39, 32, 33, 45, 49, 31, 36, 45, 30, 40, 49, 38, 43, 41, 36, 44, 43, 30, 38, 42], [44, 35, 34, 35, 48, 35, 44, 43, 48, 44, 44, 42, 44, 46, 33, 35, 39, 38, 31, 39, 48, 48, 43, 49, 31, 35, 33, 46, 43, 30, 33, 50, 49, 50, 50, 32, 38, 41, 39, 36, 42, 43, 44, 48, 48, 45, 43, 31, 46, 40, 35, 46, 35, 34, 46, 43, 35, 37, 46, 45]], [[0, 0, 0, 0, 0, 0, 0, 0, 0, 0, 0, 0, 0, 0, 0, 0, 0, 0, 0, 0, 0, 0, 0, 0, 0, 0, 0, 0, 0, 0, 0, 0, 0, 0, 0, 0, 0, 0, 0, 0, 0, 0, 0, 0, 0, 0, 0, 0, 0, 0, 0, 0, 0, 0, 0, 0, 0, 0, 0, 0], [0, 0, 0, 0, 0, 0, 0, 0, 0, 0, 0, 0, 0, 0, 0, 0, 0, 0, 0, 0, 0, 0, 0, 0, 0, 0, 0, 0, 0, 0, 0, 0, 0, 0, 0, 0, 0, 0, 0, 0, 0, 0, 0, 0, 0, 0, 0, 0, 0, 0, 0, 0, 0, 0, 0, 0, 0, 0, 0, 0], [33, 40, 40, 47, 48, 32, 38, 36, 47, 48, 42, 34, 42, 46, 39, 30, 44, 44, 41, 38, 39, 48, 39, 41, 33, 43, 50, 32, 50, 43, 39, 42, 34, 44, 46, 30, 44, 44, 35, 41, 33, 43, 38, 46, 33, 32, 31, 36, 46, 43, 48, 49, 31, 36, 45, 40, 41, 31, 34, 41], [40, 44, 40, 34, 46, 44, 49, 48, 43, 34, 31, 30, 32, 38, 34, 44, 47, 47, 47, 42, 33, 32, 38, 32, 31, 40, 44, 48, 33, 45, 46, 34, 35, 41, 37, 44, 37, 49, 46, 39, 41, 35, 41, 48, 49, 32, 36, 41, 47, 38, 44, 33, 32, 49, 30, 36, 39, 40, 42, 35], [50, 35, 50, 32, 34, 37, 46, 37, 38, 43, 33, 40, 45, 43, 48, 35, 44, 40, 41, 45, 47, 47, 46, 45, 49, 50, 48, 38, 37, 50, 48, 39, 41, 50, 36, 42, 31, 42, 47, 31, 38, 38, 32, 34, 40, 49, 34, 48, 35, 35, 37, 31, 41, 46, 44, 30, 41, 38, 32, 35], [30, 46, 42, 45, 31, 38, 49, 39, 40, 34, 38, 42, 50, 41, 43, 32, 41, 40, 35, 48, 37, 46, 39, 37, 43, 49, 48, 37, 41, 44, 44, 47, 41, 47, 35, 41, 41, 49, 41, 49, 33, 45, 30, 34, 47, 38, 44, 49, 35, 40, 39, 40, 43, 41, 39, 30, 49, 33, 38, 48], [34, 32, 50, 34, 32, 42, 34, 35, 49, 50, 30, 45, 46, 39, 38, 35, 31, 48, 39, 33, 44, 38, 43, 45, 30, 45, 41, 31, 48, 35, 50, 50, 30, 43, 40, 35, 46, 35, 39, 49, 41, 46, 39, 38, 38, 40, 31, 32, 43, 30, 37, 43, 47, 50, 42, 50, 35, 49, 43, 39], [44, 39, 35, 49, 43, 38, 40, 48, 45, 42, 46, 37, 39, 30, 35, 47, 34, 44, 35, 36, 44, 32, 49, 34, 39, 35, 41, 35, 47, 39, 32, 38, 35, 31, 40, 48, 48, 46, 33, 36, 49, 47, 36, 31, 39, 36, 42, 34, 50, 35, 34, 46, 41, 30, 39, 43, 49, 45, 41, 39], [33, 43, 33, 34, 30, 39, 49, 43, 35, 48, 31, 39, 35, 30, 49, 35, 48, 37, 31, 45, 36, 48, 41, 40, 44, 50, 32, 43, 49, 33, 32, 46, 31, 47, 46, 35, 35, 34, 42, 30, 31, 32, 49, 41, 48, 44, 36, 32, 30, 34, 49, 43, 43, 32, 46, 47, 40, 45, 46, 47], [49, 48, 32, 47, 43, 34, 49, 32, 34, 32, 48, 40, 47, 40, 35, 49, 33, 36, 44, 46, 35, 46, 34, 34, 39, 33, 46, 32, 47, 34, 49, 41, 30, 45, 40, 37, 36, 49, 32, 35, 31, 32, 37, 35, 40, 35, 47, 32, 39, 33, 43, 41, 31, 33, 47, 40, 32, 32, 42, 34]], [[0, 0, 0, 0, 0, 0, 0, 0, 0, 0, 0, 0, 0, 0, 0, 0, 0, 0, 0, 0, 0, 0, 0, 0, 0, 0, 0, 0, 0, 0, 0, 0, 0, 0, 0, 0, 0, 0, 0, 0, 0, 0, 0, 0, 0, 0, 0, 0, 0, 0, 0, 0, 0, 0, 0, 0, 0, 0, 0, 0], [0, 0, 0, 0, 0, 0, 0, 0, 0, 0, 0, 0, 0, 0, 0, 0, 0, 0, 0, 0, 0, 0, 0, 0, 0, 0, 0, 0, 0, 0, 0, 0, 0, 0, 0, 0, 0, 0, 0, 0, 0, 0, 0, 0, 0, 0, 0, 0, 0, 0, 0, 0, 0, 0, 0, 0, 0, 0, 0, 0], [0, 0, 0, 0, 0, 0, 0, 0, 0, 0, 0, 0, 0, 0, 0, 0, 0, 0, 0, 0, 0, 0, 0, 0, 0, 0, 0, 0, 0, 0, 0, 0, 0, 0, 0, 0, 0, 0, 0, 0, 0, 0, 0, 0, 0, 0, 0, 0, 0, 0, 0, 0, 0, 0, 0, 0, 0, 0, 0, 0], [33, 50, 35, 46, 39, 44, 30, 36, 47, 48, 33, 38, 36, 43, 42, 50, 30, 45, 37, 45, 40, 36, 49, 37, 47, 38, 30, 38, 40, 38, 30, 32, 32, 37, 36, 38, 48, 44, 39, 31, 44, 31, 38, 50, 35, 45, 30, 47, 35, 45, 34, 38, 37, 36, 35, 38, 33, 44, 33, 40], [43, 40, 34, 39, 47, 39, 47, 35, 31, 39, 35, 31, 41, 40, 41, 40, 48, 41, 44, 34, 46, 38, 46, 31, 48, 39, 38, 47, 30, 32, 38, 43, 33, 43, 37, 50, 35, 35, 32, 47, 37, 38, 42, 41, 49, 39, 44, 50, 44, 49, 41, 45, 37, 32, 40, 43, 47, 47, 35, 34], [36, 48, 50, 36, 34, 36, 34, 41, 46, 37, 36, 33, 43, 50, 39, 34, 48, 41, 35, 41, 45, 34, 45, 36, 33, 40, 30, 43, 30, 45, 40, 45, 32, 40, 38, 43, 31, 47, 31, 44, 38, 42, 47, 49, 39, 43, 33, 50, 44, 34, 46, 49, 33, 33, 41, 43, 45, 41, 31, 37], [38, 43, 32, 30, 50, 40, 35, 47, 32, 45, 33, 43, 30, 41, 31, 30, 39, 46, 35, 32, 42, 38, 33, 31, 47, 40, 30, 40, 38, 31, 35, 42, 39, 50, 48, 43, 36, 35, 48, 36, 40, 39, 34, 43, 36, 47, 39, 42, 44, 32, 50, 46, 44, 32, 38, 44, 37, 45, 44, 38], [35, 35, 34, 34, 44, 35, 36, 45, 42, 39, 50, 33, 31, 46, 43, 45, 48, 49, 40, 48, 43, 45, 50, 39, 38, 43, 50, 43, 39, 34, 49, 36, 45, 40, 39, 44, 38, 30, 39, 32, 35, 37, 40, 32, 48, 45, 46, 37, 33, 38, 32, 30, 42, 45, 44, 33, 31, 31, 39, 33], [38, 45, 43, 33, 50, 46, 42, 31, 39, 32, 38, 45, 34, 49, 47, 50, 34, 37, 47, 42, 37, 39, 30, 34, 44, 47, 31, 35, 42, 44, 45, 47, 44, 34, 39, 33, 46, 42, 39, 32, 34, 45, 33, 40, 31, 46, 30, 45, 31, 49, 37, 37, 50, 41, 30, 33, 33, 46, 41, 43], [47, 42, 46, 46, 34, 40, 40, 39, 49, 42, 49, 48, 32, 34, 30, 39, 31, 34, 40, 45, 42, 37, 41, 35, 46, 39, 44, 33, 40, 38, 31, 42, 46, 37, 30, 38, 37, 43, 44, 34, 32, 35, 46, 32, 32, 31, 45, 48, 42, 45, 44, 34, 31, 43, 32, 48, 33, 36, 45, 45]], [[0, 0, 0, 0, 0, 0, 0, 0, 0, 0, 0, 0, 0, 0, 0, 0, 0, 0, 0, 0, 0, 0, 0, 0, 0, 0, 0, 0, 0, 0, 0, 0, 0, 0, 0, 0, 0, 0, 0, 0, 0, 0, 0, 0, 0, 0, 0, 0, 0, 0, 0, 0, 0, 0, 0, 0, 0, 0, 0, 0], [0, 0, 0, 0, 0, 0, 0, 0, 0, 0, 0, 0, 0, 0, 0, 0, 0, 0, 0, 0, 0, 0, 0, 0, 0, 0, 0, 0, 0, 0, 0, 0, 0, 0, 0, 0, 0, 0, 0, 0, 0, 0, 0, 0, 0, 0, 0, 0, 0, 0, 0, 0, 0, 0, 0, 0, 0, 0, 0, 0], [0, 0, 0, 0, 0, 0, 0, 0, 0, 0, 0, 0, 0, 0, 0, 0, 0, 0, 0, 0, 0, 0, 0, 0, 0, 0, 0, 0, 0, 0, 0, 0, 0, 0, 0, 0, 0, 0, 0, 0, 0, 0, 0, 0, 0, 0, 0, 0, 0, 0, 0, 0, 0, 0, 0, 0, 0, 0, 0, 0], [0, 0, 0, 0, 0, 0, 0, 0, 0, 0, 0, 0, 0, 0, 0, 0, 0, 0, 0, 0, 0, 0, 0, 0, 0, 0, 0, 0, 0, 0, 0, 0, 0, 0, 0, 0, 0, 0, 0, 0, 0, 0, 0, 0, 0, 0, 0, 0, 0, 0, 0, 0, 0, 0, 0, 0, 0, 0, 0, 0], [44, 35, 41, 33, 47, 34, 46, 40, 34, 36, 49, 50, 34, 47, 34, 42, 37, 48, 47, 44, 32, 49, 38, 31, 30, 34, 39, 42, 33, 42, 49, 50, 45, 49, 38, 39, 33, 49, 32, 47, 35, 43, 40, 31, 50, 33, 31, 30, 30, 30, 46, 32, 30, 43, 42, 48, 43, 49, 49, 31], [33, 45, 33, 45, 45, 31, 32, 46, 41, 49, 42, 32, 32, 39, 34, 38, 36, 33, 41, 44, 48, 33, 46, 37, 49, 49, 49, 38, 34, 43, 37, 33, 49, 48, 30, 46, 35, 32, 33, 49, 30, 46, 44, 35, 43, 42, 43, 46, 47, 36, 43, 44, 49, 36, 47, 38, 50, 32, 39, 42], [35, 34, 41, 40, 46, 42, 40, 50, 39, 46, 50, 36, 38, 38, 32, 47, 32, 36, 43, 30, 47, 32, 32, 44, 43, 49, 36, 48, 49, 31, 30, 33, 45, 31, 31, 46, 39, 47, 38, 50, 40, 43, 30, 35, 50, 37, 37, 32, 30, 49, 45, 49, 38, 44, 37, 30, 46, 42, 43, 48], [40, 45, 38, 48, 48, 32, 48, 34, 37, 35, 34, 31, 31, 46, 42, 40, 30, 48, 35, 47, 49, 35, 45, 47, 43, 49, 35, 36, 43, 36, 35, 37, 37, 35, 36, 35, 50, 38, 44, 42, 39, 44, 38, 34, 37, 34, 39, 43, 49, 45, 32, 50, 49, 40, 46, 35, 49, 42, 42, 49], [41, 42, 38, 33, 38, 47, 47, 48, 48, 48, 46, 50, 34, 39, 33, 33, 30, 50, 41, 31, 37, 43, 36, 42, 46, 46, 31, 35, 44, 47, 35, 47, 41, 41, 44, 44, 45, 43, 43, 32, 46, 38, 40, 44, 38, 32, 32, 48, 32, 38, 31, 49, 39, 49, 48, 46, 36, 37, 35, 49], [40, 45, 35, 37, 40, 32, 32, 48, 30, 42, 36, 35, 50, 48, 43, 40, 39, 34, 32, 39, 35, 46, 33, 49, 48, 42, 38, 44, 41, 31, 46, 34, 39, 37, 40, 41, 49, 47, 47, 38, 50, 33, 43, 48, 33, 36, 34, 47, 37, 37, 45, 39, 31, 31, 43, 30, 49, 37, 50, 40]], [[0, 0, 0, 0, 0, 0, 0, 0, 0, 0, 0, 0, 0, 0, 0, 0, 0, 0, 0, 0, 0, 0, 0, 0, 0, 0, 0, 0, 0, 0, 0, 0, 0, 0, 0, 0, 0, 0, 0, 0, 0, 0, 0, 0, 0, 0, 0, 0, 0, 0, 0, 0, 0, 0, 0, 0, 0, 0, 0, 0], [0, 0, 0, 0, 0, 0, 0, 0, 0, 0, 0, 0, 0, 0, 0, 0, 0, 0, 0, 0, 0, 0, 0, 0, 0, 0, 0, 0, 0, 0, 0, 0, 0, 0, 0, 0, 0, 0, 0, 0, 0, 0, 0, 0, 0, 0, 0, 0, 0, 0, 0, 0, 0, 0, 0, 0, 0, 0, 0, 0], [0, 0, 0, 0, 0, 0, 0, 0, 0, 0, 0, 0, 0, 0, 0, 0, 0, 0, 0, 0, 0, 0, 0, 0, 0, 0, 0, 0, 0, 0, 0, 0, 0, 0, 0, 0, 0, 0, 0, 0, 0, 0, 0, 0, 0, 0, 0, 0, 0, 0, 0, 0, 0, 0, 0, 0, 0, 0, 0, 0], [0, 0, 0, 0, 0, 0, 0, 0, 0, 0, 0, 0, 0, 0, 0, 0, 0, 0, 0, 0, 0, 0, 0, 0, 0, 0, 0, 0, 0, 0, 0, 0, 0, 0, 0, 0, 0, 0, 0, 0, 0, 0, 0, 0, 0, 0, 0, 0, 0, 0, 0, 0, 0, 0, 0, 0, 0, 0, 0, 0], [0, 0, 0, 0, 0, 0, 0, 0, 0, 0, 0, 0, 0, 0, 0, 0, 0, 0, 0, 0, 0, 0, 0, 0, 0, 0, 0, 0, 0, 0, 0, 0, 0, 0, 0, 0, 0, 0, 0, 0, 0, 0, 0, 0, 0, 0, 0, 0, 0, 0, 0, 0, 0, 0, 0, 0, 0, 0, 0, 0], [36, 40, 39, 49, 50, 32, 30, 43, 50, 37, 40, 47, 50, 38, 46, 50, 30, 46, 35, 46, 35, 31, 50, 34, 40, 44, 42, 31, 36, 37, 50, 42, 34, 48, 42, 35, 33, 36, 32, 45, 47, 37, 37, 43, 49, 41, 50, 38, 49, 39, 47, 36, 41, 37, 37, 45, 43, 46, 45, 38], [35, 47, 32, 31, 31, 37, 33, 42, 40, 32, 49, 50, 38, 31, 50, 46, 49, 46, 46, 32, 39, 44, 43, 31, 40, 46, 35, 40, 47, 40, 49, 49, 46, 44, 37, 30, 36, 41, 43, 33, 50, 30, 35, 45, 36, 37, 38, 36, 37, 37, 48, 46, 36, 33, 40, 32, 32, 30, 39, 43], [32, 39, 44, 44, 44, 33, 35, 38, 32, 48, 36, 38, 31, 47, 45, 47, 37, 38, 44, 31, 38, 49, 36, 43, 37, 45, 50, 39, 33, 41, 41, 48, 42, 33, 39, 37, 49, 44, 32, 44, 50, 38, 49, 47, 50, 46, 37, 32, 49, 45, 39, 31, 33, 46, 40, 49, 38, 36, 41, 43], [40, 38, 41, 33, 44, 42, 32, 40, 50, 33, 45, 43, 30, 45, 44, 50, 31, 42, 43, 37, 35, 41, 42, 37, 35, 37, 48, 32, 31, 33, 50, 46, 43, 47, 43, 42, 31, 39, 30, 47, 44, 42, 47, 47, 41, 37, 37, 47, 50, 41, 49, 30, 31, 43, 35, 45, 36, 41, 44, 35], [47, 43, 50, 39, 34, 46, 42, 50, 39, 34, 32, 32, 46, 35, 48, 41, 43, 45, 41, 39, 43, 42, 38, 44, 49, 40, 34, 44, 47, 46, 43, 36, 40, 32, 31, 34, 42, 34, 42, 43, 33, 45, 49, 41, 41, 44, 44, 48, 35, 30, 50, 33, 43, 49, 45, 44, 30, 49, 48, 34]], [[0, 0, 0, 0, 0, 0, 0, 0, 0, 0, 0, 0, 0, 0, 0, 0, 0, 0, 0, 0, 0, 0, 0, 0, 0, 0, 0, 0, 0, 0, 0, 0, 0, 0, 0, 0, 0, 0, 0, 0, 0, 0, 0, 0, 0, 0, 0, 0, 0, 0, 0, 0, 0, 0, 0, 0, 0, 0, 0, 0], [0, 0, 0, 0, 0, 0, 0, 0, 0, 0, 0, 0, 0, 0, 0, 0, 0, 0, 0, 0, 0, 0, 0, 0, 0, 0, 0, 0, 0, 0, 0, 0, 0, 0, 0, 0, 0, 0, 0, 0, 0, 0, 0, 0, 0, 0, 0, 0, 0, 0, 0, 0, 0, 0, 0, 0, 0, 0, 0, 0], [0, 0, 0, 0, 0, 0, 0, 0, 0, 0, 0, 0, 0, 0, 0, 0, 0, 0, 0, 0, 0, 0, 0, 0, 0, 0, 0, 0, 0, 0, 0, 0, 0, 0, 0, 0, 0, 0, 0, 0, 0, 0, 0, 0, 0, 0, 0, 0, 0, 0, 0, 0, 0, 0, 0, 0, 0, 0, 0, 0], [0, 0, 0, 0, 0, 0, 0, 0, 0, 0, 0, 0, 0, 0, 0, 0, 0, 0, 0, 0, 0, 0, 0, 0, 0, 0, 0, 0, 0, 0, 0, 0, 0, 0, 0, 0, 0, 0, 0, 0, 0, 0, 0, 0, 0, 0, 0, 0, 0, 0, 0, 0, 0, 0, 0, 0, 0, 0, 0, 0], [0, 0, 0, 0, 0, 0, 0, 0, 0, 0, 0, 0, 0, 0, 0, 0, 0, 0, 0, 0, 0, 0, 0, 0, 0, 0, 0, 0, 0, 0, 0, 0, 0, 0, 0, 0, 0, 0, 0, 0, 0, 0, 0, 0, 0, 0, 0, 0, 0, 0, 0, 0, 0, 0, 0, 0, 0, 0, 0, 0], [0, 0, 0, 0, 0, 0, 0, 0, 0, 0, 0, 0, 0, 0, 0, 0, 0, 0, 0, 0, 0, 0, 0, 0, 0, 0, 0, 0, 0, 0, 0, 0, 0, 0, 0, 0, 0, 0, 0, 0, 0, 0, 0, 0, 0, 0, 0, 0, 0, 0, 0, 0, 0, 0, 0, 0, 0, 0, 0, 0], [35, 45, 31, 47, 45, 46, 46, 33, 44, 36, 30, 38, 41, 46, 30, 36, 47, 39, 35, 35, 48, 42, 49, 48, 48, 41, 35, 48, 33, 44, 34, 33, 44, 44, 32, 31, 34, 44, 36, 30, 42, 45, 32, 49, 49, 44, 39, 30, 48, 40, 37, 50, 45, 40, 36, 43, 33, 48, 42, 42], [31, 44, 48, 41, 44, 49, 31, 38, 33, 46, 44, 34, 31, 31, 44, 43, 50, 33, 30, 46, 31, 39, 38, 33, 35, 35, 33, 37, 42, 30, 38, 42, 47, 49, 49, 36, 43, 47, 33, 38, 38, 36, 35, 49, 36, 41, 37, 37, 43, 46, 50, 35, 37, 30, 33, 47, 35, 42, 48, 45], [40, 31, 45, 50, 30, 48, 40, 42, 44, 44, 30, 31, 47, 38, 35, 37, 35, 34, 30, 46, 44, 43, 31, 35, 40, 43, 31, 43, 32, 34, 47, 34, 36, 39, 50, 30, 31, 38, 34, 42, 49, 45, 42, 39, 46, 42, 35, 30, 43, 43, 38, 45, 37, 32, 30, 46, 46, 32, 30, 46], [30, 46, 42, 36, 32, 49, 30, 45, 47, 47, 36, 31, 36, 50, 43, 49, 30, 31, 40, 48, 36, 50, 35, 48, 42, 46, 33, 48, 34, 36, 37, 38, 50, 37, 31, 38, 43, 44, 43, 37, 33, 40, 32, 41, 38, 31, 33, 46, 35, 31, 31, 37, 30, 47, 39, 35, 30, 40, 30, 32]], [[0, 0, 0, 0, 0, 0, 0, 0, 0, 0, 0, 0, 0, 0, 0, 0, 0, 0, 0, 0, 0, 0, 0, 0, 0, 0, 0, 0, 0, 0, 0, 0, 0, 0, 0, 0, 0, 0, 0, 0, 0, 0, 0, 0, 0, 0, 0, 0, 0, 0, 0, 0, 0, 0, 0, 0, 0, 0, 0, 0], [0, 0, 0, 0, 0, 0, 0, 0, 0, 0, 0, 0, 0, 0, 0, 0, 0, 0, 0, 0, 0, 0, 0, 0, 0, 0, 0, 0, 0, 0, 0, 0, 0, 0, 0, 0, 0, 0, 0, 0, 0, 0, 0, 0, 0, 0, 0, 0, 0, 0, 0, 0, 0, 0, 0, 0, 0, 0, 0, 0], [0, 0, 0, 0, 0, 0, 0, 0, 0, 0, 0, 0, 0, 0, 0, 0, 0, 0, 0, 0, 0, 0, 0, 0, 0, 0, 0, 0, 0, 0, 0, 0, 0, 0, 0, 0, 0, 0, 0, 0, 0, 0, 0, 0, 0, 0, 0, 0, 0, 0, 0, 0, 0, 0, 0, 0, 0, 0, 0, 0], [0, 0, 0, 0, 0, 0, 0, 0, 0, 0, 0, 0, 0, 0, 0, 0, 0, 0, 0, 0, 0, 0, 0, 0, 0, 0, 0, 0, 0, 0, 0, 0, 0, 0, 0, 0, 0, 0, 0, 0, 0, 0, 0, 0, 0, 0, 0, 0, 0, 0, 0, 0, 0, 0, 0, 0, 0, 0, 0, 0], [0, 0, 0, 0, 0, 0, 0, 0, 0, 0, 0, 0, 0, 0, 0, 0, 0, 0, 0, 0, 0, 0, 0, 0, 0, 0, 0, 0, 0, 0, 0, 0, 0, 0, 0, 0, 0, 0, 0, 0, 0, 0, 0, 0, 0, 0, 0, 0, 0, 0, 0, 0, 0, 0, 0, 0, 0, 0, 0, 0], [0, 0, 0, 0, 0, 0, 0, 0, 0, 0, 0, 0, 0, 0, 0, 0, 0, 0, 0, 0, 0, 0, 0, 0, 0, 0, 0, 0, 0, 0, 0, 0, 0, 0, 0, 0, 0, 0, 0, 0, 0, 0, 0, 0, 0, 0, 0, 0, 0, 0, 0, 0, 0, 0, 0, 0, 0, 0, 0, 0], [0, 0, 0, 0, 0, 0, 0, 0, 0, 0, 0, 0, 0, 0, 0, 0, 0, 0, 0, 0, 0, 0, 0, 0, 0, 0, 0, 0, 0, 0, 0, 0, 0, 0, 0, 0, 0, 0, 0, 0, 0, 0, 0, 0, 0, 0, 0, 0, 0, 0, 0, 0, 0, 0, 0, 0, 0, 0, 0, 0], [47, 32, 32, 34, 45, 31, 49, 42, 45, 41, 40, 42, 34, 36, 43, 40, 40, 32, 50, 44, 42, 46, 31, 40, 37, 30, 40, 40, 41, 50, 33, 47, 33, 48, 34, 33, 36, 31, 36, 38, 49, 34, 42, 32, 32, 31, 31, 50, 48, 34, 43, 38, 40, 44, 35, 44, 36, 30, 38, 31], [32, 47, 44, 37, 42, 45, 36, 46, 46, 45, 37, 48, 40, 36, 32, 40, 46, 35, 46, 41, 50, 33, 32, 41, 46, 38, 37, 49, 42, 34, 34, 36, 41, 46, 41, 36, 39, 49, 48, 47, 33, 50, 39, 30, 47, 46, 46, 46, 42, 44, 46, 32, 32, 31, 30, 42, 39, 35, 49, 35], [50, 47, 36, 49, 41, 30, 43, 35, 31, 50, 34, 36, 31, 35, 30, 45, 48, 41, 44, 37, 46, 48, 43, 37, 43, 42, 35, 35, 36, 41, 43, 35, 38, 50, 35, 37, 32, 44, 39, 43, 49, 32, 45, 46, 41, 30, 41, 38, 44, 32, 36, 49, 46, 39, 40, 43, 50, 39, 42, 48]], [[0, 0, 0, 0, 0, 0, 0, 0, 0, 0, 0, 0, 0, 0, 0, 0, 0, 0, 0, 0, 0, 0, 0, 0, 0, 0, 0, 0, 0, 0, 0, 0, 0, 0, 0, 0, 0, 0, 0, 0, 0, 0, 0, 0, 0, 0, 0, 0, 0, 0, 0, 0, 0, 0, 0, 0, 0, 0, 0, 0], [0, 0, 0, 0, 0, 0, 0, 0, 0, 0, 0, 0, 0, 0, 0, 0, 0, 0, 0, 0, 0, 0, 0, 0, 0, 0, 0, 0, 0, 0, 0, 0, 0, 0, 0, 0, 0, 0, 0, 0, 0, 0, 0, 0, 0, 0, 0, 0, 0, 0, 0, 0, 0, 0, 0, 0, 0, 0, 0, 0], [0, 0, 0, 0, 0, 0, 0, 0, 0, 0, 0, 0, 0, 0, 0, 0, 0, 0, 0, 0, 0, 0, 0, 0, 0, 0, 0, 0, 0, 0, 0, 0, 0, 0, 0, 0, 0, 0, 0, 0, 0, 0, 0, 0, 0, 0, 0, 0, 0, 0, 0, 0, 0, 0, 0, 0, 0, 0, 0, 0], [0, 0, 0, 0, 0, 0, 0, 0, 0, 0, 0, 0, 0, 0, 0, 0, 0, 0, 0, 0, 0, 0, 0, 0, 0, 0, 0, 0, 0, 0, 0, 0, 0, 0, 0, 0, 0, 0, 0, 0, 0, 0, 0, 0, 0, 0, 0, 0, 0, 0, 0, 0, 0, 0, 0, 0, 0, 0, 0, 0], [0, 0, 0, 0, 0, 0, 0, 0, 0, 0, 0, 0, 0, 0, 0, 0, 0, 0, 0, 0, 0, 0, 0, 0, 0, 0, 0, 0, 0, 0, 0, 0, 0, 0, 0, 0, 0, 0, 0, 0, 0, 0, 0, 0, 0, 0, 0, 0, 0, 0, 0, 0, 0, 0, 0, 0, 0, 0, 0, 0], [0, 0, 0, 0, 0, 0, 0, 0, 0, 0, 0, 0, 0, 0, 0, 0, 0, 0, 0, 0, 0, 0, 0, 0, 0, 0, 0, 0, 0, 0, 0, 0, 0, 0, 0, 0, 0, 0, 0, 0, 0, 0, 0, 0, 0, 0, 0, 0, 0, 0, 0, 0, 0, 0, 0, 0, 0, 0, 0, 0], [0, 0, 0, 0, 0, 0, 0, 0, 0, 0, 0, 0, 0, 0, 0, 0, 0, 0, 0, 0, 0, 0, 0, 0, 0, 0, 0, 0, 0, 0, 0, 0, 0, 0, 0, 0, 0, 0, 0, 0, 0, 0, 0, 0, 0, 0, 0, 0, 0, 0, 0, 0, 0, 0, 0, 0, 0, 0, 0, 0], [0, 0, 0, 0, 0, 0, 0, 0, 0, 0, 0, 0, 0, 0, 0, 0, 0, 0, 0, 0, 0, 0, 0, 0, 0, 0, 0, 0, 0, 0, 0, 0, 0, 0, 0, 0, 0, 0, 0, 0, 0, 0, 0, 0, 0, 0, 0, 0, 0, 0, 0, 0, 0, 0, 0, 0, 0, 0, 0, 0], [30, 33, 50, 38, 36, 50, 49, 47, 40, 33, 30, 40, 47, 36, 31, 37, 35, 36, 46, 30, 31, 30, 33, 47, 38, 50, 31, 41, 40, 37, 49, 43, 50, 34, 39, 49, 35, 46, 40, 30, 42, 39, 35, 35, 46, 48, 47, 50, 39, 46, 37, 38, 39, 40, 38, 43, 34, 47, 47, 48], [48, 34, 49, 46, 43, 39, 33, 43, 50, 39, 34, 36, 39, 32, 33, 38, 30, 35, 45, 50, 47, 32, 36, 35, 31, 48, 47, 45, 41, 30, 38, 40, 33, 36, 48, 34, 31, 50, 33, 43, 50, 39, 36, 32, 30, 47, 49, 46, 39, 47, 33, 30, 46, 30, 37, 41, 39, 38, 34, 50]], [[0, 0, 0, 0, 0, 0, 0, 0, 0, 0, 0, 0, 0, 0, 0, 0, 0, 0, 0, 0, 0, 0, 0, 0, 0, 0, 0, 0, 0, 0, 0, 0, 0, 0, 0, 0, 0, 0, 0, 0, 0, 0, 0, 0, 0, 0, 0, 0, 0, 0, 0, 0, 0, 0, 0, 0, 0, 0, 0, 0], [0, 0, 0, 0, 0, 0, 0, 0, 0, 0, 0, 0, 0, 0, 0, 0, 0, 0, 0, 0, 0, 0, 0, 0, 0, 0, 0, 0, 0, 0, 0, 0, 0, 0, 0, 0, 0, 0, 0, 0, 0, 0, 0, 0, 0, 0, 0, 0, 0, 0, 0, 0, 0, 0, 0, 0, 0, 0, 0, 0], [0, 0, 0, 0, 0, 0, 0, 0, 0, 0, 0, 0, 0, 0, 0, 0, 0, 0, 0, 0, 0, 0, 0, 0, 0, 0, 0, 0, 0, 0, 0, 0, 0, 0, 0, 0, 0, 0, 0, 0, 0, 0, 0, 0, 0, 0, 0, 0, 0, 0, 0, 0, 0, 0, 0, 0, 0, 0, 0, 0], [0, 0, 0, 0, 0, 0, 0, 0, 0, 0, 0, 0, 0, 0, 0, 0, 0, 0, 0, 0, 0, 0, 0, 0, 0, 0, 0, 0, 0, 0, 0, 0, 0, 0, 0, 0, 0, 0, 0, 0, 0, 0, 0, 0, 0, 0, 0, 0, 0, 0, 0, 0, 0, 0, 0, 0, 0, 0, 0, 0], [0, 0, 0, 0, 0, 0, 0, 0, 0, 0, 0, 0, 0, 0, 0, 0, 0, 0, 0, 0, 0, 0, 0, 0, 0, 0, 0, 0, 0, 0, 0, 0, 0, 0, 0, 0, 0, 0, 0, 0, 0, 0, 0, 0, 0, 0, 0, 0, 0, 0, 0, 0, 0, 0, 0, 0, 0, 0, 0, 0], [0, 0, 0, 0, 0, 0, 0, 0, 0, 0, 0, 0, 0, 0, 0, 0, 0, 0, 0, 0, 0, 0, 0, 0, 0, 0, 0, 0, 0, 0, 0, 0, 0, 0, 0, 0, 0, 0, 0, 0, 0, 0, 0, 0, 0, 0, 0, 0, 0, 0, 0, 0, 0, 0, 0, 0, 0, 0, 0, 0], [0, 0, 0, 0, 0, 0, 0, 0, 0, 0, 0, 0, 0, 0, 0, 0, 0, 0, 0, 0, 0, 0, 0, 0, 0, 0, 0, 0, 0, 0, 0, 0, 0, 0, 0, 0, 0, 0, 0, 0, 0, 0, 0, 0, 0, 0, 0, 0, 0, 0, 0, 0, 0, 0, 0, 0, 0, 0, 0, 0], [0, 0, 0, 0, 0, 0, 0, 0, 0, 0, 0, 0, 0, 0, 0, 0, 0, 0, 0, 0, 0, 0, 0, 0, 0, 0, 0, 0, 0, 0, 0, 0, 0, 0, 0, 0, 0, 0, 0, 0, 0, 0, 0, 0, 0, 0, 0, 0, 0, 0, 0, 0, 0, 0, 0, 0, 0, 0, 0, 0], [0, 0, 0, 0, 0, 0, 0, 0, 0, 0, 0, 0, 0, 0, 0, 0, 0, 0, 0, 0, 0, 0, 0, 0, 0, 0, 0, 0, 0, 0, 0, 0, 0, 0, 0, 0, 0, 0, 0, 0, 0, 0, 0, 0, 0, 0, 0, 0, 0, 0, 0, 0, 0, 0, 0, 0, 0, 0, 0, 0], [39, 46, 35, 42, 40, 37, 48, 45, 34, 49, 45, 44, 38, 32, 38, 45, 30, 43, 44, 41, 41, 34, 34, 47, 35, 50, 33, 31, 49, 46, 50, 37, 36, 43, 43, 36, 36, 33, 31, 32, 33, 36, 37, 35, 30, 44, 39, 45, 46, 32, 36, 31, 37, 40, 41, 48, 40, 41, 42, 47]], [[0, 0, 0, 0, 0, 0, 0, 0, 0, 0, 0, 0, 0, 0, 0, 0, 0, 0, 0, 0, 0, 0, 0, 0, 0, 0, 0, 0, 0, 0, 0, 0, 0, 0, 0, 0, 0, 0, 0, 0, 0, 0, 0, 0, 0, 0, 0, 0, 0, 0, 0, 0, 0, 0, 0, 0, 0, 0, 0, 0], [0, 0, 0, 0, 0, 0, 0, 0, 0, 0, 0, 0, 0, 0, 0, 0, 0, 0, 0, 0, 0, 0, 0, 0, 0, 0, 0, 0, 0, 0, 0, 0, 0, 0, 0, 0, 0, 0, 0, 0, 0, 0, 0, 0, 0, 0, 0, 0, 0, 0, 0, 0, 0, 0, 0, 0, 0, 0, 0, 0], [0, 0, 0, 0, 0, 0, 0, 0, 0, 0, 0, 0, 0, 0, 0, 0, 0, 0, 0, 0, 0, 0, 0, 0, 0, 0, 0, 0, 0, 0, 0, 0, 0, 0, 0, 0, 0, 0, 0, 0, 0, 0, 0, 0, 0, 0, 0, 0, 0, 0, 0, 0, 0, 0, 0, 0, 0, 0, 0, 0], [0, 0, 0, 0, 0, 0, 0, 0, 0, 0, 0, 0, 0, 0, 0, 0, 0, 0, 0, 0, 0, 0, 0, 0, 0, 0, 0, 0, 0, 0, 0, 0, 0, 0, 0, 0, 0, 0, 0, 0, 0, 0, 0, 0, 0, 0, 0, 0, 0, 0, 0, 0, 0, 0, 0, 0, 0, 0, 0, 0], [0, 0, 0, 0, 0, 0, 0, 0, 0, 0, 0, 0, 0, 0, 0, 0, 0, 0, 0, 0, 0, 0, 0, 0, 0, 0, 0, 0, 0, 0, 0, 0, 0, 0, 0, 0, 0, 0, 0, 0, 0, 0, 0, 0, 0, 0, 0, 0, 0, 0, 0, 0, 0, 0, 0, 0, 0, 0, 0, 0], [0, 0, 0, 0, 0, 0, 0, 0, 0, 0, 0, 0, 0, 0, 0, 0, 0, 0, 0, 0, 0, 0, 0, 0, 0, 0, 0, 0, 0, 0, 0, 0, 0, 0, 0, 0, 0, 0, 0, 0, 0, 0, 0, 0, 0, 0, 0, 0, 0, 0, 0, 0, 0, 0, 0, 0, 0, 0, 0, 0], [0, 0, 0, 0, 0, 0, 0, 0, 0, 0, 0, 0, 0, 0, 0, 0, 0, 0, 0, 0, 0, 0, 0, 0, 0, 0, 0, 0, 0, 0, 0, 0, 0, 0, 0, 0, 0, 0, 0, 0, 0, 0, 0, 0, 0, 0, 0, 0, 0, 0, 0, 0, 0, 0, 0, 0, 0, 0, 0, 0], [0, 0, 0, 0, 0, 0, 0, 0, 0, 0, 0, 0, 0, 0, 0, 0, 0, 0, 0, 0, 0, 0, 0, 0, 0, 0, 0, 0, 0, 0, 0, 0, 0, 0, 0, 0, 0, 0, 0, 0, 0, 0, 0, 0, 0, 0, 0, 0, 0, 0, 0, 0, 0, 0, 0, 0, 0, 0, 0, 0], [0, 0, 0, 0, 0, 0, 0, 0, 0, 0, 0, 0, 0, 0, 0, 0, 0, 0, 0, 0, 0, 0, 0, 0, 0, 0, 0, 0, 0, 0, 0, 0, 0, 0, 0, 0, 0, 0, 0, 0, 0, 0, 0, 0, 0, 0, 0, 0, 0, 0, 0, 0, 0, 0, 0, 0, 0, 0, 0, 0], [0, 0, 0, 0, 0, 0, 0, 0, 0, 0, 0, 0, 0, 0, 0, 0, 0, 0, 0, 0, 0, 0, 0, 0, 0, 0, 0, 0, 0, 0, 0, 0, 0, 0, 0, 0, 0, 0, 0, 0, 0, 0, 0, 0, 0, 0, 0, 0, 0, 0, 0, 0, 0, 0, 0, 0, 0, 0, 0, 0]]];

q = [[[16], [25], [23], [24], [19], [17], [17], [16], [18], [17], [12], [10], [24], [25], [6], [18], [17], [6], [10], [10], [6], [11], [8], [25], [22], [18], [18], [12], [17], [5], [16], [8], [17], [15], [22], [13], [13], [15], [10], [25], [15], [18], [20], [25], [6], [18], [15], [24], [9], [16], [7], [15], [24], [9], [18], [12], [9], [19], [22], [16]], [[10], [7], [20], [18], [19], [7], [8], [8], [18], [7], [8], [16], [14], [11], [20], [17], [5], [6], [17], [19], [21], [20], [10], [5], [25], [15], [5], [16], [19], [11], [14], [13], [12], [22], [18], [13], [6], [8], [17], [5], [5], [23], [23], [11], [12], [17], [17], [19], [21], [24], [15], [11], [23], [11], [18], [6], [21], [8], [24], [14]], [[5], [5], [13], [22], [5], [25], [9], [9], [14], [8], [11], [8], [13], [10], [16], [12], [5], [20], [19], [16], [13], [19], [18], [8], [18], [6], [23], [9], [12], [12], [21], [11], [13], [8], [17], [16], [12], [14], [22], [13], [12], [16], [24], [7], [18], [17], [8], [17], [17], [25], [22], [16], [20], [13], [12], [22], [12], [14], [8], [18]], [[25], [19], [15], [7], [21], [16], [23], [10], [24], [14], [19], [17], [10], [14], [25], [21], [13], [6], [8], [8], [15], [13], [20], [19], [11], [7], [18], [6], [13], [9], [13], [7], [16], [23], [9], [7], [6], [7], [13], [7], [16], [8], [21], [14], [16], [25], [22], [7], [10], [13], [17], [23], [6], [19], [22], [15], [14], [10], [23], [25]], [[25], [20], [25], [13], [7], [6], [11], [7], [12], [17], [18], [23], [16], [25], [21], [9], [19], [20], [13], [24], [24], [9], [17], [20], [19], [13], [6], [18], [11], [8], [5], [6], [17], [11], [9], [8], [16], [16], [24], [12], [5], [12], [15], [14], [10], [8], [21], [13], [17], [16], [18], [7], [15], [22], [5], [9], [22], [12], [25], [11]], [[23], [8], [15], [7], [15], [7], [12], [10], [17], [13], [13], [11], [21], [23], [21], [8], [10], [17], [15], [25], [10], [13], [10], [18], [18], [9], [11], [22], [18], [24], [24], [18], [21], [22], [19], [17], [23], [25], [16], [5], [11], [7], [10], [18], [5], [7], [19], [12], [9], [23], [25], [17], [13], [11], [10], [6], [5], [19], [22], [24]], [[25], [19], [24], [20], [18], [6], [8], [16], [22], [14], [22], [8], [15], [13], [15], [12], [21], [20], [13], [16], [12], [20], [7], [18], [19], [24], [9], [7], [10], [11], [17], [17], [11], [21], [25], [5], [18], [9], [22], [22], [11], [9], [14], [7], [13], [13], [22], [20], [15], [17], [20], [8], [21], [8], [5], [25], [21], [19], [10], [8]], [[18], [24], [20], [8], [19], [21], [23], [6], [20], [23], [23], [9], [7], [23], [20], [7], [6], [11], [23], [16], [17], [24], [23], [19], [14], [13], [15], [22], [13], [16], [6], [14], [20], [11], [13], [19], [17], [12], [6], [23], [13], [25], [23], [12], [17], [5], [24], [25], [11], [10], [25], [25], [22], [12], [12], [10], [8], [8], [18], [14]], [[18], [10], [9], [23], [17], [13], [15], [13], [8], [5], [15], [6], [15], [12], [8], [23], [7], [22], [10], [9], [14], [24], [8], [11], [7], [20], [24], [6], [22], [20], [6], [18], [8], [10], [6], [22], [18], [18], [5], [7], [13], [25], [7], [15], [18], [15], [19], [7], [23], [11], [7], [6], [9], [15], [7], [12], [9], [20], [11], [23]], [[22], [20], [10], [16], [24], [22], [15], [5], [25], [24], [11], [8], [7], [20], [24], [6], [19], [13], [14], [8], [18], [6], [16], [21], [6], [16], [14], [21], [18], [5], [15], [21], [7], [10], [20], [18], [22], [14], [12], [18], [17], [9], [14], [12], [17], [22], [8], [16], [13], [12], [6], [20], [20], [6], [9], [22], [13], [20], [24], [19]]];
Q = [[75], [68], [67], [70], [70], [72], [73], [77], [64], [72]];
